benchmarks_vrp/CMT4/fixed_c_size/CMT4_8.vrp
NAME: CMT4_8
TYPE: CVRP
COMMENT: 1028.42 - Cluster Nr.8
DIMENSION: 14
CAPACITY: 200
EDGE_WEIGHT_TYPE: EUC_2D
NODE_COORD_TYPE: TWOD_COORDS
NODE_COORD_SECTION: 
14 42 41
3 27 43
9 37 47
11 41 37
7 26 52
1 30 48
5 41 49
4 32 39
6 38 46
8 35 35
12 37 52
2 31 52
13 21 47
10 35 40
DEPOT_SECTION: 
8
-1
DEMAND_SECTION: 
14 19
5 10
10 16
1 15
2 27
7 9
4 5
11 16
13 15
6 12
8 0
3 9
12 7
9 6
EOF
