benchmarks_vrp/CMT4/fixed_c_size/CMT4_8.tour
NAME: CMT4_8 solution
TYPE: TOUR
TOUR_SECTION:
8 10 4 3 13 7 1 2 12 5 9 6 14 11 -1
-1
EOF